&projwfc
 prefix = 'si'
 outdir = '../tmp'
 degauss = 0.01
/
