&BANDS
 outdir='../tmp/',
 prefix='si',
 filband='si.bands',
/
