&CONTROL
 calculation='bands',
 restart_mode='from_scratch',
 prefix='si',
 pseudo_dir='../pseudo/',
 outdir='../tmp/',
/
&SYSTEM
 ibrav=2,
 celldm(1)=10.2625,
 nat=2,
 ntyp=1,
 ecutwfc=60.0,
 ecutrho=720.0,
 nbnd=8,
/
&ELECTRONS
 mixing_beta=0.7,
 conv_thr=1d-8,
/
ATOMIC_SPECIES
 Si 28.0855 Si.pbe-rrkj.UPF
ATOMIC_POSITIONS (alat)
Si  0.00  0.00  0.00
Si  0.25  0.25  0.25
K_POINTS {crystal_b}
5
   0.0000000000     0.0000000000    -0.5000000000     20
   0.0000000000     0.0000000000     0.0000000000     30
  -0.5000000000     0.0000000000    -0.5000000000     10
  -0.3750000000     0.0000000000    -0.6250000000     30
   0.0000000000     0.0000000000     0.0000000000     20
